p cnf 290 558               
-10 -9 -25 0
25 -27 0
9 10 -26 0
26 -27 0
27 -49 0
-12 -11 -28 0
28 -30 0
11 12 -29 0
29 -30 0
30 -49 0
-14 -13 -31 0
31 -33 0
13 14 -32 0
32 -33 0
33 -49 0
-16 -15 -34 0
34 -36 0
15 16 -35 0
35 -36 0
36 -49 0
-18 -17 -37 0
37 -39 0
17 18 -38 0
38 -39 0
39 -49 0
-20 -19 -40 0
40 -42 0
19 20 -41 0
41 -42 0
42 -49 0
-22 -21 -43 0
43 -45 0
21 22 -44 0
44 -45 0
45 -49 0
-24 -23 -46 0
46 -48 0
23 24 -47 0
47 -48 0
48 -49 0
49 -231 0
17 105 0
-21 105 0
-17 21 -105 0
18 106 0
-22 106 0
-18 22 -106 0
19 107 0
-23 107 0
-19 23 -107 0
20 108 0
-24 108 0
-20 24 -108 0
-105 -106 -107 -108 109 0
21 110 0
-17 110 0
22 111 0
-18 111 0
23 112 0
-19 112 0
24 113 0
-20 113 0
-110 -111 -112 -113 114 0
-109 -114 115 0
-115 -116 0
13 94 0
-21 94 0
14 95 0
-22 95 0
15 96 0
-23 96 0
16 97 0
-24 97 0
-94 -95 -96 -97 98 0
21 99 0
-13 99 0
22 100 0
-14 100 0
23 101 0
-15 101 0
24 102 0
-16 102 0
-99 -100 -101 -102 103 0
-98 -103 104 0
-104 -116 0
13 83 0
-17 83 0
-13 17 -83 0
14 84 0
-18 84 0
-14 18 -84 0
15 85 0
-19 85 0
-15 19 -85 0
16 86 0
-20 86 0
-16 20 -86 0
-83 -84 -85 -86 87 0
17 88 0
-13 88 0
18 89 0
-14 89 0
19 90 0
-15 90 0
20 91 0
-16 91 0
-88 -89 -90 -91 92 0
-87 -92 93 0
-93 -116 0
9 72 0
-21 72 0
10 73 0
-22 73 0
11 74 0
-23 74 0
12 75 0
-24 75 0
-72 -73 -74 -75 76 0
21 77 0
-9 77 0
22 78 0
-10 78 0
23 79 0
-11 79 0
24 80 0
-12 80 0
-77 -78 -79 -80 81 0
-76 -81 82 0
-82 -116 0
9 61 0
-17 61 0
10 62 0
-18 62 0
11 63 0
-19 63 0
12 64 0
-20 64 0
-61 -62 -63 -64 65 0
17 66 0
-9 66 0
18 67 0
-10 67 0
19 68 0
-11 68 0
20 69 0
-12 69 0
-66 -67 -68 -69 70 0
-65 -70 71 0
-71 -116 0
9 50 0
-13 50 0
-9 13 -50 0
10 51 0
-14 51 0
-10 14 -51 0
11 52 0
-15 52 0
-11 15 -52 0
12 53 0
-16 53 0
-12 16 -53 0
-50 -51 -52 -53 54 0
13 55 0
-9 55 0
14 56 0
-10 56 0
15 57 0
-11 57 0
16 58 0
-12 58 0
-55 -56 -57 -58 59 0
-54 -59 60 0
-60 -116 0
116 -231 0
-9 -117 0
10 -117 0
9 -10 117 0
-1 117 -118 0
1 -117 -118 0
117 -117 -118 0
118 -133 0
-11 -119 0
12 -119 0
11 -12 119 0
-2 119 -120 0
2 -119 -120 0
119 -119 -120 0
120 -133 0
-13 -121 0
14 -121 0
13 -14 121 0
-3 121 -122 0
3 -121 -122 0
121 -121 -122 0
122 -133 0
-15 -123 0
16 -123 0
15 -16 123 0
-4 123 -124 0
4 -123 -124 0
123 -123 -124 0
124 -133 0
-17 -125 0
18 -125 0
17 -18 125 0
-5 125 -126 0
5 -125 -126 0
125 -125 -126 0
126 -133 0
-19 -127 0
20 -127 0
19 -20 127 0
-6 127 -128 0
6 -127 -128 0
127 -127 -128 0
128 -133 0
-21 -129 0
22 -129 0
21 -22 129 0
-7 129 -130 0
7 -129 -130 0
129 -129 -130 0
130 -133 0
-23 -131 0
24 -131 0
23 -24 131 0
-8 131 -132 0
8 -131 -132 0
131 -131 -132 0
132 -133 0
133 -231 0
11 9 203 0
-10 -12 204 0
-203 -204 205 0
-1 -205 215 0
-215 223 0
15 13 206 0
-14 -16 207 0
-206 -207 208 0
-3 -208 217 0
-217 223 0
19 17 209 0
-18 -20 210 0
-209 -210 211 0
-5 -211 219 0
-219 223 0
23 21 212 0
-22 -24 213 0
-212 -213 214 0
-7 -214 221 0
-221 223 0
-2 -205 216 0
-216 224 0
-4 -208 218 0
-218 224 0
-6 -211 220 0
-220 224 0
-8 -214 222 0
-222 224 0
-223 -224 229 0
2 -147 0
-12 -134 0
-10 -134 0
134 -136 0
9 -135 0
11 -135 0
135 -136 0
136 -147 0
4 -149 0
-16 -137 0
-14 -137 0
137 -139 0
13 -138 0
15 -138 0
138 -139 0
139 -149 0
6 -151 0
-20 -140 0
-18 -140 0
140 -142 0
17 -141 0
19 -141 0
141 -142 0
142 -151 0
8 -153 0
-24 -143 0
-22 -143 0
143 -145 0
21 -144 0
23 -144 0
144 -145 0
145 -153 0
147 149 151 153 -155 0
1 -146 0
136 -146 0
3 -148 0
139 -148 0
5 -150 0
142 -150 0
7 -152 0
145 -152 0
146 148 150 152 -154 0
155 154 156 0
2 -170 0
-11 -157 0
-10 -157 0
11 10 157 0
157 -159 0
9 -158 0
12 -158 0
-9 -12 158 0
158 -159 0
-157 -158 159 0
159 -170 0
-2 -159 170 0
-170 178 0
4 -172 0
-15 -160 0
-14 -160 0
15 14 160 0
160 -162 0
13 -161 0
16 -161 0
-13 -16 161 0
161 -162 0
-160 -161 162 0
162 -172 0
-4 -162 172 0
-172 178 0
6 -174 0
-19 -163 0
-18 -163 0
19 18 163 0
163 -165 0
17 -164 0
20 -164 0
-17 -20 164 0
164 -165 0
-163 -164 165 0
165 -174 0
-6 -165 174 0
-174 178 0
8 -176 0
-23 -166 0
-22 -166 0
23 22 166 0
166 -168 0
21 -167 0
24 -167 0
-21 -24 167 0
167 -168 0
-166 -167 168 0
168 -176 0
-8 -168 176 0
-176 178 0
170 172 174 176 -178 0
-178 -179 0
1 -169 0
159 -169 0
-1 -159 169 0
-169 177 0
3 -171 0
162 -171 0
-3 -162 171 0
-171 177 0
5 -173 0
165 -173 0
-5 -165 173 0
-173 177 0
7 -175 0
168 -175 0
-7 -168 175 0
-175 177 0
169 171 173 175 -177 0
-177 -179 0
2 -193 0
-12 -180 0
-9 -180 0
12 9 180 0
180 -182 0
10 -181 0
11 -181 0
-10 -11 181 0
181 -182 0
-180 -181 182 0
182 -193 0
-2 -182 193 0
-193 201 0
4 -195 0
-16 -183 0
-13 -183 0
16 13 183 0
183 -185 0
14 -184 0
15 -184 0
-14 -15 184 0
184 -185 0
-183 -184 185 0
185 -195 0
-4 -185 195 0
-195 201 0
6 -197 0
-20 -186 0
-17 -186 0
20 17 186 0
186 -188 0
18 -187 0
19 -187 0
-18 -19 187 0
187 -188 0
-186 -187 188 0
188 -197 0
-6 -188 197 0
-197 201 0
8 -199 0
-24 -189 0
-21 -189 0
24 21 189 0
189 -191 0
22 -190 0
23 -190 0
-22 -23 190 0
190 -191 0
-189 -190 191 0
191 -199 0
-8 -191 199 0
-199 201 0
193 195 197 199 -201 0
-201 -202 0
1 -192 0
182 -192 0
-1 -182 192 0
-192 200 0
3 -194 0
185 -194 0
-3 -185 194 0
-194 200 0
5 -196 0
188 -196 0
-5 -188 196 0
-196 200 0
7 -198 0
191 -198 0
-7 -191 198 0
-198 200 0
192 194 196 198 -200 0
-200 -202 0
-224 -225 0
-223 -225 0
154 -226 0
155 -226 0
177 -227 0
178 -227 0
200 -228 0
201 -228 0
-229 -156 179 202 225 226 227 228 -230 0
230 -231 0
-1 3 -232 0
232 -250 0
-1 -3 233 0
1 3 233 0
-3 3 233 0
-2 4 -234 0
-233 234 -235 0
235 -250 0
-2 -4 236 0
2 4 236 0
-4 4 236 0
-233 -236 237 0
-237 50 -238 0
238 -250 0
-9 -13 239 0
9 13 239 0
-13 13 239 0
-237 -239 240 0
-240 51 -241 0
241 -250 0
-10 -14 242 0
10 14 242 0
-14 14 242 0
-240 -242 243 0
-243 52 -244 0
244 -250 0
-11 -15 245 0
11 15 245 0
-15 15 245 0
-243 -245 246 0
-246 53 -247 0
247 -250 0
250 -289 0
-3 5 -251 0
251 -269 0
-3 -5 252 0
3 5 252 0
-5 5 252 0
-4 6 -253 0
-252 253 -254 0
254 -269 0
-4 -6 255 0
4 6 255 0
-6 6 255 0
-252 -255 256 0
-256 83 -257 0
257 -269 0
-13 -17 258 0
13 17 258 0
-17 17 258 0
-256 -258 259 0
-259 84 -260 0
260 -269 0
-14 -18 261 0
14 18 261 0
-18 18 261 0
-259 -261 262 0
-262 85 -263 0
263 -269 0
-15 -19 264 0
15 19 264 0
-19 19 264 0
-262 -264 265 0
-265 86 -266 0
266 -269 0
269 -289 0
-5 7 -270 0
270 -288 0
-5 -7 271 0
5 7 271 0
-7 7 271 0
-6 8 -272 0
-271 272 -273 0
273 -288 0
-6 -8 274 0
6 8 274 0
-8 8 274 0
-271 -274 275 0
-275 105 -276 0
276 -288 0
-17 -21 277 0
17 21 277 0
-21 21 277 0
-275 -277 278 0
-278 106 -279 0
279 -288 0
-18 -22 280 0
18 22 280 0
-22 22 280 0
-278 -280 281 0
-281 107 -282 0
282 -288 0
-19 -23 283 0
19 23 283 0
-23 23 283 0
-281 -283 284 0
-284 108 -285 0
285 -288 0
288 -289 0
231 0
289 0
